# Objective value = 252
cmax 252
x_1_1 1
x_1_2 0
x_2_1 0
x_2_2 1
x_3_1 1
x_3_2 0
x_4_1 1
x_4_2 0
x_5_1 1
x_5_2 0
t_1_1_1 0
t_1_1_2 29
t_1_1_3 176
t_1_2_1 0
t_1_2_2 0
t_1_2_3 0
t_1_2_4 0
t_1_2_5 0
t_1_2_6 0
t_2_1_1 0
t_2_1_2 0
t_2_1_3 0
t_2_1_4 0
t_2_1_5 0
t_2_2_1 0
t_2_2_2 81
t_2_2_3 180
t_3_1_1 58
t_3_1_2 116
t_3_2_1 0
t_3_2_2 0
t_3_2_3 0
t_3_2_4 0
t_3_2_5 0
t_3_2_6 0
t_4_1_1 0
t_4_1_2 81
t_4_2_1 0
t_4_2_2 0
t_4_2_3 0
t_5_1_1 0
t_5_1_2 58
t_5_1_3 71
t_5_1_4 160
t_5_2_1 0
t_5_2_2 0
t_5_2_3 0
t_5_2_4 0
t_5_2_5 0
a_1_1_1_1 0
a_1_1_1_5 1
a_1_1_1_2 0
a_1_1_2_1 1
a_1_1_2_3 0
a_1_1_3_3 0
a_1_1_3_4 1
a_1_2_1_2 0
a_1_2_1_1 0
a_1_2_2_2 0
a_1_2_2_1 0
a_1_2_2_3 0
a_1_2_3_5 0
a_1_2_3_2 0
a_1_2_4_1 0
a_1_2_4_3 0
a_1_2_5_5 0
a_1_2_6_1 0
a_1_2_6_4 0
a_2_1_1_1 0
a_2_1_1_5 0
a_2_1_2_1 0
a_2_1_2_5 0
a_2_1_3_3 0
a_2_1_3_4 0
a_2_1_4_1 0
a_2_1_4_3 0
a_2_1_5_2 0
a_2_1_5_5 0
a_2_2_1_2 1
a_2_2_1_4 0
a_2_2_2_3 1
a_2_2_2_4 0
a_2_2_3_1 1
a_3_1_1_4 1
a_3_1_1_1 0
a_3_1_1_3 0
a_3_1_2_5 1
a_3_1_2_2 0
a_3_1_2_3 0
a_3_2_1_4 0
a_3_2_1_1 0
a_3_2_2_2 0
a_3_2_2_1 0
a_3_2_2_3 0
a_3_2_3_5 0
a_3_2_3_3 0
a_3_2_3_4 0
a_3_2_4_2 0
a_3_2_4_1 0
a_3_2_4_3 0
a_3_2_5_1 0
a_3_2_5_4 0
a_3_2_5_3 0
a_3_2_6_4 0
a_3_2_6_3 0
a_4_1_1_3 1
a_4_1_1_2 0
a_4_1_1_4 0
a_4_1_2_2 1
a_4_1_2_1 0
a_4_1_2_4 0
a_4_2_1_4 0
a_4_2_1_2 0
a_4_2_1_5 0
a_4_2_2_1 0
a_4_2_2_5 0
a_4_2_2_2 0
a_4_2_3_4 0
a_4_2_3_2 0
a_4_2_3_1 0
a_5_1_1_4 1
a_5_1_1_3 0
a_5_1_1_1 0
a_5_1_2_2 1
a_5_1_2_4 0
a_5_1_2_1 0
a_5_1_3_1 1
a_5_1_3_4 0
a_5_1_4_2 1
a_5_1_4_4 0
a_5_1_4_3 0
a_5_2_1_3 0
a_5_2_1_4 0
a_5_2_1_1 0
a_5_2_2_3 0
a_5_2_2_2 0
a_5_2_3_5 0
a_5_2_3_1 0
a_5_2_3_2 0
a_5_2_4_2 0
a_5_2_4_1 0
a_5_2_4_3 0
a_5_2_5_1 0
a_5_2_5_5 0
a_5_2_5_2 0
B_1_1_1_2_1_1 0
B_1_1_1_2_1_2 0
B_1_1_1_2_1_3 0
B_1_1_1_2_1_4 0
B_1_1_1_2_1_5 0
B_1_1_1_2_2_1 0
B_1_1_1_2_2_2 0
B_1_1_1_2_2_3 0
B_1_1_1_3_1_1 0
B_1_1_1_3_1_2 1
B_1_1_1_3_2_1 0
B_1_1_1_3_2_2 0
B_1_1_1_3_2_3 0
B_1_1_1_3_2_4 0
B_1_1_1_3_2_5 0
B_1_1_1_3_2_6 0
B_1_1_1_4_1_1 0
B_1_1_1_4_1_2 0
B_1_1_1_4_2_1 0
B_1_1_1_4_2_2 0
B_1_1_1_4_2_3 0
B_1_1_1_5_1_1 0
B_1_1_1_5_1_2 0
B_1_1_1_5_1_3 0
B_1_1_1_5_1_4 0
B_1_1_1_5_2_1 0
B_1_1_1_5_2_2 0
B_1_1_1_5_2_3 0
B_1_1_1_5_2_4 0
B_1_1_1_5_2_5 0
B_1_1_2_2_1_1 0
B_1_1_2_2_1_2 0
B_1_1_2_2_1_3 0
B_1_1_2_2_1_4 0
B_1_1_2_2_1_5 0
B_1_1_2_2_2_1 0
B_1_1_2_2_2_2 0
B_1_1_2_2_2_3 1
B_1_1_2_3_1_1 1
B_1_1_2_3_1_2 0
B_1_1_2_3_2_1 0
B_1_1_2_3_2_2 0
B_1_1_2_3_2_3 0
B_1_1_2_3_2_4 0
B_1_1_2_3_2_5 0
B_1_1_2_3_2_6 0
B_1_1_2_4_1_1 0
B_1_1_2_4_1_2 0
B_1_1_2_4_2_1 0
B_1_1_2_4_2_2 0
B_1_1_2_4_2_3 0
B_1_1_2_5_1_1 1
B_1_1_2_5_1_2 0
B_1_1_2_5_1_3 1
B_1_1_2_5_1_4 0
B_1_1_2_5_2_1 0
B_1_1_2_5_2_2 0
B_1_1_2_5_2_3 0
B_1_1_2_5_2_4 0
B_1_1_2_5_2_5 0
B_1_1_3_2_1_1 0
B_1_1_3_2_1_2 0
B_1_1_3_2_1_3 0
B_1_1_3_2_1_4 0
B_1_1_3_2_1_5 0
B_1_1_3_2_2_1 0
B_1_1_3_2_2_2 0
B_1_1_3_2_2_3 0
B_1_1_3_3_1_1 0
B_1_1_3_3_1_2 0
B_1_1_3_3_2_1 0
B_1_1_3_3_2_2 0
B_1_1_3_3_2_3 0
B_1_1_3_3_2_4 0
B_1_1_3_3_2_5 0
B_1_1_3_3_2_6 0
B_1_1_3_4_1_1 0
B_1_1_3_4_1_2 0
B_1_1_3_4_2_1 0
B_1_1_3_4_2_2 0
B_1_1_3_4_2_3 0
B_1_1_3_5_1_1 0
B_1_1_3_5_1_2 0
B_1_1_3_5_1_3 0
B_1_1_3_5_1_4 0
B_1_1_3_5_2_1 0
B_1_1_3_5_2_2 0
B_1_1_3_5_2_3 0
B_1_1_3_5_2_4 0
B_1_1_3_5_2_5 0
B_1_2_1_2_1_1 0
B_1_2_1_2_1_2 0
B_1_2_1_2_1_3 0
B_1_2_1_2_1_4 0
B_1_2_1_2_1_5 0
B_1_2_1_2_2_1 0
B_1_2_1_2_2_2 0
B_1_2_1_2_2_3 0
B_1_2_1_3_1_1 0
B_1_2_1_3_1_2 0
B_1_2_1_3_2_1 0
B_1_2_1_3_2_2 0
B_1_2_1_3_2_3 0
B_1_2_1_3_2_4 0
B_1_2_1_3_2_5 0
B_1_2_1_3_2_6 0
B_1_2_1_4_1_1 0
B_1_2_1_4_1_2 0
B_1_2_1_4_2_1 0
B_1_2_1_4_2_2 0
B_1_2_1_4_2_3 0
B_1_2_1_5_1_1 0
B_1_2_1_5_1_2 0
B_1_2_1_5_1_3 0
B_1_2_1_5_1_4 0
B_1_2_1_5_2_1 0
B_1_2_1_5_2_2 0
B_1_2_1_5_2_3 0
B_1_2_1_5_2_4 0
B_1_2_1_5_2_5 0
B_1_2_2_2_1_1 0
B_1_2_2_2_1_2 0
B_1_2_2_2_1_3 0
B_1_2_2_2_1_4 0
B_1_2_2_2_1_5 0
B_1_2_2_2_2_1 0
B_1_2_2_2_2_2 0
B_1_2_2_2_2_3 0
B_1_2_2_3_1_1 0
B_1_2_2_3_1_2 0
B_1_2_2_3_2_1 0
B_1_2_2_3_2_2 0
B_1_2_2_3_2_3 0
B_1_2_2_3_2_4 0
B_1_2_2_3_2_5 0
B_1_2_2_3_2_6 0
B_1_2_2_4_1_1 0
B_1_2_2_4_1_2 0
B_1_2_2_4_2_1 0
B_1_2_2_4_2_2 0
B_1_2_2_4_2_3 0
B_1_2_2_5_1_1 0
B_1_2_2_5_1_2 0
B_1_2_2_5_1_3 0
B_1_2_2_5_1_4 0
B_1_2_2_5_2_1 0
B_1_2_2_5_2_2 0
B_1_2_2_5_2_3 0
B_1_2_2_5_2_4 0
B_1_2_2_5_2_5 0
B_1_2_3_2_1_1 0
B_1_2_3_2_1_2 0
B_1_2_3_2_1_3 0
B_1_2_3_2_1_4 0
B_1_2_3_2_1_5 0
B_1_2_3_2_2_1 0
B_1_2_3_2_2_2 0
B_1_2_3_2_2_3 0
B_1_2_3_3_1_1 0
B_1_2_3_3_1_2 0
B_1_2_3_3_2_1 0
B_1_2_3_3_2_2 0
B_1_2_3_3_2_3 0
B_1_2_3_3_2_4 0
B_1_2_3_3_2_5 0
B_1_2_3_3_2_6 0
B_1_2_3_4_1_1 0
B_1_2_3_4_1_2 0
B_1_2_3_4_2_1 0
B_1_2_3_4_2_2 0
B_1_2_3_4_2_3 0
B_1_2_3_5_1_1 0
B_1_2_3_5_1_2 0
B_1_2_3_5_1_3 0
B_1_2_3_5_1_4 0
B_1_2_3_5_2_1 0
B_1_2_3_5_2_2 0
B_1_2_3_5_2_3 0
B_1_2_3_5_2_4 0
B_1_2_3_5_2_5 0
B_1_2_4_2_1_1 0
B_1_2_4_2_1_2 0
B_1_2_4_2_1_3 0
B_1_2_4_2_1_4 0
B_1_2_4_2_1_5 0
B_1_2_4_2_2_1 0
B_1_2_4_2_2_2 0
B_1_2_4_2_2_3 0
B_1_2_4_3_1_1 0
B_1_2_4_3_1_2 0
B_1_2_4_3_2_1 0
B_1_2_4_3_2_2 0
B_1_2_4_3_2_3 0
B_1_2_4_3_2_4 0
B_1_2_4_3_2_5 0
B_1_2_4_3_2_6 0
B_1_2_4_4_1_1 0
B_1_2_4_4_1_2 0
B_1_2_4_4_2_1 0
B_1_2_4_4_2_2 0
B_1_2_4_4_2_3 0
B_1_2_4_5_1_1 0
B_1_2_4_5_1_2 0
B_1_2_4_5_1_3 0
B_1_2_4_5_1_4 0
B_1_2_4_5_2_1 0
B_1_2_4_5_2_2 0
B_1_2_4_5_2_3 0
B_1_2_4_5_2_4 0
B_1_2_4_5_2_5 0
B_1_2_5_2_1_1 0
B_1_2_5_2_1_2 0
B_1_2_5_2_1_3 0
B_1_2_5_2_1_4 0
B_1_2_5_2_1_5 0
B_1_2_5_2_2_1 0
B_1_2_5_2_2_2 0
B_1_2_5_2_2_3 0
B_1_2_5_3_1_1 0
B_1_2_5_3_1_2 1
B_1_2_5_3_2_1 0
B_1_2_5_3_2_2 0
B_1_2_5_3_2_3 0
B_1_2_5_3_2_4 0
B_1_2_5_3_2_5 0
B_1_2_5_3_2_6 0
B_1_2_5_4_1_1 0
B_1_2_5_4_1_2 0
B_1_2_5_4_2_1 0
B_1_2_5_4_2_2 0
B_1_2_5_4_2_3 0
B_1_2_5_5_1_1 0
B_1_2_5_5_1_2 0
B_1_2_5_5_1_3 0
B_1_2_5_5_1_4 0
B_1_2_5_5_2_1 0
B_1_2_5_5_2_2 0
B_1_2_5_5_2_3 0
B_1_2_5_5_2_4 0
B_1_2_5_5_2_5 0
B_1_2_6_2_1_1 0
B_1_2_6_2_1_2 0
B_1_2_6_2_1_3 0
B_1_2_6_2_1_4 0
B_1_2_6_2_1_5 0
B_1_2_6_2_2_1 0
B_1_2_6_2_2_2 0
B_1_2_6_2_2_3 0
B_1_2_6_3_1_1 0
B_1_2_6_3_1_2 0
B_1_2_6_3_2_1 0
B_1_2_6_3_2_2 0
B_1_2_6_3_2_3 0
B_1_2_6_3_2_4 0
B_1_2_6_3_2_5 0
B_1_2_6_3_2_6 0
B_1_2_6_4_1_1 0
B_1_2_6_4_1_2 0
B_1_2_6_4_2_1 0
B_1_2_6_4_2_2 0
B_1_2_6_4_2_3 0
B_1_2_6_5_1_1 0
B_1_2_6_5_1_2 0
B_1_2_6_5_1_3 0
B_1_2_6_5_1_4 0
B_1_2_6_5_2_1 0
B_1_2_6_5_2_2 0
B_1_2_6_5_2_3 0
B_1_2_6_5_2_4 0
B_1_2_6_5_2_5 0
B_2_1_1_1_1_1 0
B_2_1_1_1_1_2 0
B_2_1_1_1_1_3 0
B_2_1_1_1_2_1 0
B_2_1_1_1_2_2 0
B_2_1_1_1_2_3 0
B_2_1_1_1_2_4 0
B_2_1_1_1_2_5 0
B_2_1_1_1_2_6 0
B_2_1_1_3_1_1 0
B_2_1_1_3_1_2 0
B_2_1_1_3_2_1 0
B_2_1_1_3_2_2 0
B_2_1_1_3_2_3 0
B_2_1_1_3_2_4 0
B_2_1_1_3_2_5 0
B_2_1_1_3_2_6 0
B_2_1_1_4_1_1 0
B_2_1_1_4_1_2 0
B_2_1_1_4_2_1 0
B_2_1_1_4_2_2 0
B_2_1_1_4_2_3 0
B_2_1_1_5_1_1 0
B_2_1_1_5_1_2 0
B_2_1_1_5_1_3 0
B_2_1_1_5_1_4 0
B_2_1_1_5_2_1 0
B_2_1_1_5_2_2 0
B_2_1_1_5_2_3 0
B_2_1_1_5_2_4 0
B_2_1_1_5_2_5 0
B_2_1_2_1_1_1 0
B_2_1_2_1_1_2 0
B_2_1_2_1_1_3 0
B_2_1_2_1_2_1 0
B_2_1_2_1_2_2 0
B_2_1_2_1_2_3 0
B_2_1_2_1_2_4 0
B_2_1_2_1_2_5 0
B_2_1_2_1_2_6 0
B_2_1_2_3_1_1 0
B_2_1_2_3_1_2 0
B_2_1_2_3_2_1 0
B_2_1_2_3_2_2 0
B_2_1_2_3_2_3 0
B_2_1_2_3_2_4 0
B_2_1_2_3_2_5 0
B_2_1_2_3_2_6 0
B_2_1_2_4_1_1 0
B_2_1_2_4_1_2 0
B_2_1_2_4_2_1 0
B_2_1_2_4_2_2 0
B_2_1_2_4_2_3 0
B_2_1_2_5_1_1 0
B_2_1_2_5_1_2 0
B_2_1_2_5_1_3 0
B_2_1_2_5_1_4 0
B_2_1_2_5_2_1 0
B_2_1_2_5_2_2 0
B_2_1_2_5_2_3 0
B_2_1_2_5_2_4 0
B_2_1_2_5_2_5 0
B_2_1_3_1_1_1 0
B_2_1_3_1_1_2 0
B_2_1_3_1_1_3 0
B_2_1_3_1_2_1 0
B_2_1_3_1_2_2 0
B_2_1_3_1_2_3 0
B_2_1_3_1_2_4 0
B_2_1_3_1_2_5 0
B_2_1_3_1_2_6 0
B_2_1_3_3_1_1 0
B_2_1_3_3_1_2 0
B_2_1_3_3_2_1 0
B_2_1_3_3_2_2 0
B_2_1_3_3_2_3 0
B_2_1_3_3_2_4 0
B_2_1_3_3_2_5 0
B_2_1_3_3_2_6 0
B_2_1_3_4_1_1 0
B_2_1_3_4_1_2 0
B_2_1_3_4_2_1 0
B_2_1_3_4_2_2 0
B_2_1_3_4_2_3 0
B_2_1_3_5_1_1 0
B_2_1_3_5_1_2 0
B_2_1_3_5_1_3 0
B_2_1_3_5_1_4 0
B_2_1_3_5_2_1 0
B_2_1_3_5_2_2 0
B_2_1_3_5_2_3 0
B_2_1_3_5_2_4 0
B_2_1_3_5_2_5 0
B_2_1_4_1_1_1 0
B_2_1_4_1_1_2 0
B_2_1_4_1_1_3 0
B_2_1_4_1_2_1 0
B_2_1_4_1_2_2 0
B_2_1_4_1_2_3 0
B_2_1_4_1_2_4 0
B_2_1_4_1_2_5 0
B_2_1_4_1_2_6 0
B_2_1_4_3_1_1 0
B_2_1_4_3_1_2 0
B_2_1_4_3_2_1 0
B_2_1_4_3_2_2 0
B_2_1_4_3_2_3 0
B_2_1_4_3_2_4 0
B_2_1_4_3_2_5 0
B_2_1_4_3_2_6 0
B_2_1_4_4_1_1 0
B_2_1_4_4_1_2 0
B_2_1_4_4_2_1 0
B_2_1_4_4_2_2 0
B_2_1_4_4_2_3 0
B_2_1_4_5_1_1 0
B_2_1_4_5_1_2 0
B_2_1_4_5_1_3 0
B_2_1_4_5_1_4 0
B_2_1_4_5_2_1 0
B_2_1_4_5_2_2 0
B_2_1_4_5_2_3 0
B_2_1_4_5_2_4 0
B_2_1_4_5_2_5 0
B_2_1_5_1_1_1 0
B_2_1_5_1_1_2 0
B_2_1_5_1_1_3 0
B_2_1_5_1_2_1 0
B_2_1_5_1_2_2 0
B_2_1_5_1_2_3 0
B_2_1_5_1_2_4 0
B_2_1_5_1_2_5 0
B_2_1_5_1_2_6 0
B_2_1_5_3_1_1 0
B_2_1_5_3_1_2 0
B_2_1_5_3_2_1 0
B_2_1_5_3_2_2 0
B_2_1_5_3_2_3 0
B_2_1_5_3_2_4 0
B_2_1_5_3_2_5 0
B_2_1_5_3_2_6 0
B_2_1_5_4_1_1 0
B_2_1_5_4_1_2 0
B_2_1_5_4_2_1 0
B_2_1_5_4_2_2 0
B_2_1_5_4_2_3 0
B_2_1_5_5_1_1 0
B_2_1_5_5_1_2 0
B_2_1_5_5_1_3 0
B_2_1_5_5_1_4 0
B_2_1_5_5_2_1 0
B_2_1_5_5_2_2 0
B_2_1_5_5_2_3 0
B_2_1_5_5_2_4 0
B_2_1_5_5_2_5 0
B_2_2_1_1_1_1 0
B_2_2_1_1_1_2 0
B_2_2_1_1_1_3 0
B_2_2_1_1_2_1 0
B_2_2_1_1_2_2 0
B_2_2_1_1_2_3 0
B_2_2_1_1_2_4 0
B_2_2_1_1_2_5 0
B_2_2_1_1_2_6 0
B_2_2_1_3_1_1 0
B_2_2_1_3_1_2 0
B_2_2_1_3_2_1 0
B_2_2_1_3_2_2 0
B_2_2_1_3_2_3 0
B_2_2_1_3_2_4 0
B_2_2_1_3_2_5 0
B_2_2_1_3_2_6 0
B_2_2_1_4_1_1 1
B_2_2_1_4_1_2 1
B_2_2_1_4_2_1 0
B_2_2_1_4_2_2 0
B_2_2_1_4_2_3 0
B_2_2_1_5_1_1 0
B_2_2_1_5_1_2 1
B_2_2_1_5_1_3 0
B_2_2_1_5_1_4 1
B_2_2_1_5_2_1 0
B_2_2_1_5_2_2 0
B_2_2_1_5_2_3 0
B_2_2_1_5_2_4 1
B_2_2_1_5_2_5 0
B_2_2_2_1_1_1 0
B_2_2_2_1_1_2 0
B_2_2_2_1_1_3 0
B_2_2_2_1_2_1 0
B_2_2_2_1_2_2 0
B_2_2_2_1_2_3 0
B_2_2_2_1_2_4 0
B_2_2_2_1_2_5 0
B_2_2_2_1_2_6 0
B_2_2_2_3_1_1 0
B_2_2_2_3_1_2 0
B_2_2_2_3_2_1 0
B_2_2_2_3_2_2 0
B_2_2_2_3_2_3 0
B_2_2_2_3_2_4 0
B_2_2_2_3_2_5 0
B_2_2_2_3_2_6 0
B_2_2_2_4_1_1 0
B_2_2_2_4_1_2 0
B_2_2_2_4_2_1 0
B_2_2_2_4_2_2 0
B_2_2_2_4_2_3 0
B_2_2_2_5_1_1 0
B_2_2_2_5_1_2 0
B_2_2_2_5_1_3 0
B_2_2_2_5_1_4 0
B_2_2_2_5_2_1 0
B_2_2_2_5_2_2 0
B_2_2_2_5_2_3 0
B_2_2_2_5_2_4 0
B_2_2_2_5_2_5 0
B_2_2_3_1_1_1 0
B_2_2_3_1_1_2 0
B_2_2_3_1_1_3 0
B_2_2_3_1_2_1 0
B_2_2_3_1_2_2 0
B_2_2_3_1_2_3 0
B_2_2_3_1_2_4 0
B_2_2_3_1_2_5 0
B_2_2_3_1_2_6 0
B_2_2_3_3_1_1 0
B_2_2_3_3_1_2 0
B_2_2_3_3_2_1 0
B_2_2_3_3_2_2 0
B_2_2_3_3_2_3 0
B_2_2_3_3_2_4 0
B_2_2_3_3_2_5 0
B_2_2_3_3_2_6 0
B_2_2_3_4_1_1 0
B_2_2_3_4_1_2 0
B_2_2_3_4_2_1 0
B_2_2_3_4_2_2 0
B_2_2_3_4_2_3 0
B_2_2_3_5_1_1 0
B_2_2_3_5_1_2 0
B_2_2_3_5_1_3 0
B_2_2_3_5_1_4 0
B_2_2_3_5_2_1 0
B_2_2_3_5_2_2 0
B_2_2_3_5_2_3 0
B_2_2_3_5_2_4 0
B_2_2_3_5_2_5 0
B_3_1_1_1_1_1 0
B_3_1_1_1_1_2 0
B_3_1_1_1_1_3 0
B_3_1_1_1_2_1 0
B_3_1_1_1_2_2 0
B_3_1_1_1_2_3 0
B_3_1_1_1_2_4 0
B_3_1_1_1_2_5 0
B_3_1_1_1_2_6 0
B_3_1_1_2_1_1 0
B_3_1_1_2_1_2 0
B_3_1_1_2_1_3 0
B_3_1_1_2_1_4 0
B_3_1_1_2_1_5 0
B_3_1_1_2_2_1 0
B_3_1_1_2_2_2 0
B_3_1_1_2_2_3 0
B_3_1_1_4_1_1 1
B_3_1_1_4_1_2 0
B_3_1_1_4_2_1 0
B_3_1_1_4_2_2 0
B_3_1_1_4_2_3 0
B_3_1_1_5_1_1 0
B_3_1_1_5_1_2 0
B_3_1_1_5_1_3 0
B_3_1_1_5_1_4 0
B_3_1_1_5_2_1 0
B_3_1_1_5_2_2 0
B_3_1_1_5_2_3 0
B_3_1_1_5_2_4 0
B_3_1_1_5_2_5 0
B_3_1_2_1_1_1 0
B_3_1_2_1_1_2 0
B_3_1_2_1_1_3 0
B_3_1_2_1_2_1 0
B_3_1_2_1_2_2 0
B_3_1_2_1_2_3 0
B_3_1_2_1_2_4 0
B_3_1_2_1_2_5 0
B_3_1_2_1_2_6 0
B_3_1_2_2_1_1 0
B_3_1_2_2_1_2 0
B_3_1_2_2_1_3 0
B_3_1_2_2_1_4 0
B_3_1_2_2_1_5 0
B_3_1_2_2_2_1 0
B_3_1_2_2_2_2 0
B_3_1_2_2_2_3 0
B_3_1_2_4_1_1 0
B_3_1_2_4_1_2 0
B_3_1_2_4_2_1 0
B_3_1_2_4_2_2 0
B_3_1_2_4_2_3 0
B_3_1_2_5_1_1 0
B_3_1_2_5_1_2 0
B_3_1_2_5_1_3 0
B_3_1_2_5_1_4 0
B_3_1_2_5_2_1 0
B_3_1_2_5_2_2 0
B_3_1_2_5_2_3 0
B_3_1_2_5_2_4 0
B_3_1_2_5_2_5 0
B_3_2_1_1_1_1 0
B_3_2_1_1_1_2 0
B_3_2_1_1_1_3 0
B_3_2_1_1_2_1 0
B_3_2_1_1_2_2 0
B_3_2_1_1_2_3 0
B_3_2_1_1_2_4 0
B_3_2_1_1_2_5 0
B_3_2_1_1_2_6 0
B_3_2_1_2_1_1 0
B_3_2_1_2_1_2 0
B_3_2_1_2_1_3 0
B_3_2_1_2_1_4 0
B_3_2_1_2_1_5 0
B_3_2_1_2_2_1 0
B_3_2_1_2_2_2 0
B_3_2_1_2_2_3 0
B_3_2_1_4_1_1 0
B_3_2_1_4_1_2 0
B_3_2_1_4_2_1 0
B_3_2_1_4_2_2 0
B_3_2_1_4_2_3 0
B_3_2_1_5_1_1 0
B_3_2_1_5_1_2 0
B_3_2_1_5_1_3 0
B_3_2_1_5_1_4 0
B_3_2_1_5_2_1 0
B_3_2_1_5_2_2 0
B_3_2_1_5_2_3 0
B_3_2_1_5_2_4 0
B_3_2_1_5_2_5 0
B_3_2_2_1_1_1 0
B_3_2_2_1_1_2 0
B_3_2_2_1_1_3 0
B_3_2_2_1_2_1 0
B_3_2_2_1_2_2 0
B_3_2_2_1_2_3 0
B_3_2_2_1_2_4 0
B_3_2_2_1_2_5 0
B_3_2_2_1_2_6 0
B_3_2_2_2_1_1 0
B_3_2_2_2_1_2 0
B_3_2_2_2_1_3 0
B_3_2_2_2_1_4 0
B_3_2_2_2_1_5 0
B_3_2_2_2_2_1 0
B_3_2_2_2_2_2 0
B_3_2_2_2_2_3 0
B_3_2_2_4_1_1 0
B_3_2_2_4_1_2 0
B_3_2_2_4_2_1 0
B_3_2_2_4_2_2 0
B_3_2_2_4_2_3 0
B_3_2_2_5_1_1 0
B_3_2_2_5_1_2 0
B_3_2_2_5_1_3 0
B_3_2_2_5_1_4 0
B_3_2_2_5_2_1 0
B_3_2_2_5_2_2 0
B_3_2_2_5_2_3 0
B_3_2_2_5_2_4 0
B_3_2_2_5_2_5 0
B_3_2_3_1_1_1 0
B_3_2_3_1_1_2 0
B_3_2_3_1_1_3 0
B_3_2_3_1_2_1 0
B_3_2_3_1_2_2 0
B_3_2_3_1_2_3 0
B_3_2_3_1_2_4 0
B_3_2_3_1_2_5 0
B_3_2_3_1_2_6 0
B_3_2_3_2_1_1 0
B_3_2_3_2_1_2 0
B_3_2_3_2_1_3 0
B_3_2_3_2_1_4 0
B_3_2_3_2_1_5 0
B_3_2_3_2_2_1 0
B_3_2_3_2_2_2 0
B_3_2_3_2_2_3 0
B_3_2_3_4_1_1 0
B_3_2_3_4_1_2 0
B_3_2_3_4_2_1 0
B_3_2_3_4_2_2 0
B_3_2_3_4_2_3 0
B_3_2_3_5_1_1 0
B_3_2_3_5_1_2 0
B_3_2_3_5_1_3 0
B_3_2_3_5_1_4 0
B_3_2_3_5_2_1 0
B_3_2_3_5_2_2 0
B_3_2_3_5_2_3 0
B_3_2_3_5_2_4 0
B_3_2_3_5_2_5 0
B_3_2_4_1_1_1 0
B_3_2_4_1_1_2 0
B_3_2_4_1_1_3 0
B_3_2_4_1_2_1 0
B_3_2_4_1_2_2 0
B_3_2_4_1_2_3 0
B_3_2_4_1_2_4 0
B_3_2_4_1_2_5 0
B_3_2_4_1_2_6 0
B_3_2_4_2_1_1 0
B_3_2_4_2_1_2 0
B_3_2_4_2_1_3 0
B_3_2_4_2_1_4 0
B_3_2_4_2_1_5 0
B_3_2_4_2_2_1 0
B_3_2_4_2_2_2 0
B_3_2_4_2_2_3 0
B_3_2_4_4_1_1 0
B_3_2_4_4_1_2 0
B_3_2_4_4_2_1 0
B_3_2_4_4_2_2 0
B_3_2_4_4_2_3 0
B_3_2_4_5_1_1 0
B_3_2_4_5_1_2 0
B_3_2_4_5_1_3 0
B_3_2_4_5_1_4 0
B_3_2_4_5_2_1 0
B_3_2_4_5_2_2 0
B_3_2_4_5_2_3 0
B_3_2_4_5_2_4 0
B_3_2_4_5_2_5 0
B_3_2_5_1_1_1 0
B_3_2_5_1_1_2 0
B_3_2_5_1_1_3 0
B_3_2_5_1_2_1 0
B_3_2_5_1_2_2 0
B_3_2_5_1_2_3 0
B_3_2_5_1_2_4 0
B_3_2_5_1_2_5 0
B_3_2_5_1_2_6 0
B_3_2_5_2_1_1 0
B_3_2_5_2_1_2 0
B_3_2_5_2_1_3 0
B_3_2_5_2_1_4 0
B_3_2_5_2_1_5 0
B_3_2_5_2_2_1 0
B_3_2_5_2_2_2 0
B_3_2_5_2_2_3 0
B_3_2_5_4_1_1 0
B_3_2_5_4_1_2 0
B_3_2_5_4_2_1 0
B_3_2_5_4_2_2 0
B_3_2_5_4_2_3 0
B_3_2_5_5_1_1 0
B_3_2_5_5_1_2 0
B_3_2_5_5_1_3 0
B_3_2_5_5_1_4 0
B_3_2_5_5_2_1 0
B_3_2_5_5_2_2 0
B_3_2_5_5_2_3 0
B_3_2_5_5_2_4 0
B_3_2_5_5_2_5 0
B_3_2_6_1_1_1 0
B_3_2_6_1_1_2 0
B_3_2_6_1_1_3 0
B_3_2_6_1_2_1 0
B_3_2_6_1_2_2 0
B_3_2_6_1_2_3 0
B_3_2_6_1_2_4 0
B_3_2_6_1_2_5 0
B_3_2_6_1_2_6 0
B_3_2_6_2_1_1 0
B_3_2_6_2_1_2 0
B_3_2_6_2_1_3 0
B_3_2_6_2_1_4 0
B_3_2_6_2_1_5 0
B_3_2_6_2_2_1 0
B_3_2_6_2_2_2 0
B_3_2_6_2_2_3 0
B_3_2_6_4_1_1 0
B_3_2_6_4_1_2 0
B_3_2_6_4_2_1 0
B_3_2_6_4_2_2 0
B_3_2_6_4_2_3 0
B_3_2_6_5_1_1 0
B_3_2_6_5_1_2 0
B_3_2_6_5_1_3 0
B_3_2_6_5_1_4 0
B_3_2_6_5_2_1 0
B_3_2_6_5_2_2 0
B_3_2_6_5_2_3 0
B_3_2_6_5_2_4 0
B_3_2_6_5_2_5 0
B_4_1_1_1_1_1 0
B_4_1_1_1_1_2 0
B_4_1_1_1_1_3 0
B_4_1_1_1_2_1 0
B_4_1_1_1_2_2 0
B_4_1_1_1_2_3 0
B_4_1_1_1_2_4 0
B_4_1_1_1_2_5 0
B_4_1_1_1_2_6 0
B_4_1_1_2_1_1 0
B_4_1_1_2_1_2 0
B_4_1_1_2_1_3 0
B_4_1_1_2_1_4 0
B_4_1_1_2_1_5 0
B_4_1_1_2_2_1 0
B_4_1_1_2_2_2 0
B_4_1_1_2_2_3 0
B_4_1_1_3_1_1 0
B_4_1_1_3_1_2 0
B_4_1_1_3_2_1 0
B_4_1_1_3_2_2 0
B_4_1_1_3_2_3 0
B_4_1_1_3_2_4 0
B_4_1_1_3_2_5 0
B_4_1_1_3_2_6 0
B_4_1_1_5_1_1 1
B_4_1_1_5_1_2 0
B_4_1_1_5_1_3 0
B_4_1_1_5_1_4 0
B_4_1_1_5_2_1 0
B_4_1_1_5_2_2 0
B_4_1_1_5_2_3 0
B_4_1_1_5_2_4 0
B_4_1_1_5_2_5 0
B_4_1_2_1_1_1 0
B_4_1_2_1_1_2 0
B_4_1_2_1_1_3 0
B_4_1_2_1_2_1 0
B_4_1_2_1_2_2 0
B_4_1_2_1_2_3 0
B_4_1_2_1_2_4 0
B_4_1_2_1_2_5 0
B_4_1_2_1_2_6 0
B_4_1_2_2_1_1 0
B_4_1_2_2_1_2 0
B_4_1_2_2_1_3 0
B_4_1_2_2_1_4 0
B_4_1_2_2_1_5 0
B_4_1_2_2_2_1 0
B_4_1_2_2_2_2 0
B_4_1_2_2_2_3 0
B_4_1_2_3_1_1 0
B_4_1_2_3_1_2 0
B_4_1_2_3_2_1 0
B_4_1_2_3_2_2 0
B_4_1_2_3_2_3 0
B_4_1_2_3_2_4 0
B_4_1_2_3_2_5 0
B_4_1_2_3_2_6 0
B_4_1_2_5_1_1 0
B_4_1_2_5_1_2 0
B_4_1_2_5_1_3 0
B_4_1_2_5_1_4 1
B_4_1_2_5_2_1 0
B_4_1_2_5_2_2 0
B_4_1_2_5_2_3 0
B_4_1_2_5_2_4 1
B_4_1_2_5_2_5 0
B_4_2_1_1_1_1 0
B_4_2_1_1_1_2 0
B_4_2_1_1_1_3 0
B_4_2_1_1_2_1 0
B_4_2_1_1_2_2 0
B_4_2_1_1_2_3 0
B_4_2_1_1_2_4 0
B_4_2_1_1_2_5 0
B_4_2_1_1_2_6 0
B_4_2_1_2_1_1 0
B_4_2_1_2_1_2 0
B_4_2_1_2_1_3 0
B_4_2_1_2_1_4 0
B_4_2_1_2_1_5 0
B_4_2_1_2_2_1 0
B_4_2_1_2_2_2 0
B_4_2_1_2_2_3 0
B_4_2_1_3_1_1 0
B_4_2_1_3_1_2 0
B_4_2_1_3_2_1 0
B_4_2_1_3_2_2 0
B_4_2_1_3_2_3 0
B_4_2_1_3_2_4 0
B_4_2_1_3_2_5 0
B_4_2_1_3_2_6 0
B_4_2_1_5_1_1 0
B_4_2_1_5_1_2 0
B_4_2_1_5_1_3 0
B_4_2_1_5_1_4 0
B_4_2_1_5_2_1 0
B_4_2_1_5_2_2 0
B_4_2_1_5_2_3 0
B_4_2_1_5_2_4 0
B_4_2_1_5_2_5 0
B_4_2_2_1_1_1 0
B_4_2_2_1_1_2 0
B_4_2_2_1_1_3 0
B_4_2_2_1_2_1 0
B_4_2_2_1_2_2 0
B_4_2_2_1_2_3 0
B_4_2_2_1_2_4 0
B_4_2_2_1_2_5 0
B_4_2_2_1_2_6 0
B_4_2_2_2_1_1 0
B_4_2_2_2_1_2 0
B_4_2_2_2_1_3 0
B_4_2_2_2_1_4 0
B_4_2_2_2_1_5 0
B_4_2_2_2_2_1 0
B_4_2_2_2_2_2 0
B_4_2_2_2_2_3 0
B_4_2_2_3_1_1 0
B_4_2_2_3_1_2 0
B_4_2_2_3_2_1 0
B_4_2_2_3_2_2 0
B_4_2_2_3_2_3 0
B_4_2_2_3_2_4 0
B_4_2_2_3_2_5 0
B_4_2_2_3_2_6 0
B_4_2_2_5_1_1 0
B_4_2_2_5_1_2 0
B_4_2_2_5_1_3 0
B_4_2_2_5_1_4 0
B_4_2_2_5_2_1 0
B_4_2_2_5_2_2 0
B_4_2_2_5_2_3 0
B_4_2_2_5_2_4 0
B_4_2_2_5_2_5 0
B_4_2_3_1_1_1 0
B_4_2_3_1_1_2 0
B_4_2_3_1_1_3 0
B_4_2_3_1_2_1 0
B_4_2_3_1_2_2 0
B_4_2_3_1_2_3 0
B_4_2_3_1_2_4 0
B_4_2_3_1_2_5 0
B_4_2_3_1_2_6 0
B_4_2_3_2_1_1 0
B_4_2_3_2_1_2 0
B_4_2_3_2_1_3 0
B_4_2_3_2_1_4 0
B_4_2_3_2_1_5 0
B_4_2_3_2_2_1 0
B_4_2_3_2_2_2 0
B_4_2_3_2_2_3 0
B_4_2_3_3_1_1 0
B_4_2_3_3_1_2 0
B_4_2_3_3_2_1 0
B_4_2_3_3_2_2 0
B_4_2_3_3_2_3 0
B_4_2_3_3_2_4 0
B_4_2_3_3_2_5 0
B_4_2_3_3_2_6 0
B_4_2_3_5_1_1 0
B_4_2_3_5_1_2 0
B_4_2_3_5_1_3 0
B_4_2_3_5_1_4 0
B_4_2_3_5_2_1 0
B_4_2_3_5_2_2 0
B_4_2_3_5_2_3 0
B_4_2_3_5_2_4 0
B_4_2_3_5_2_5 0
B_5_1_1_1_1_1 0
B_5_1_1_1_1_2 0
B_5_1_1_1_1_3 0
B_5_1_1_1_2_1 0
B_5_1_1_1_2_2 0
B_5_1_1_1_2_3 0
B_5_1_1_1_2_4 0
B_5_1_1_1_2_5 0
B_5_1_1_1_2_6 0
B_5_1_1_2_1_1 0
B_5_1_1_2_1_2 0
B_5_1_1_2_1_3 0
B_5_1_1_2_1_4 0
B_5_1_1_2_1_5 0
B_5_1_1_2_2_1 0
B_5_1_1_2_2_2 0
B_5_1_1_2_2_3 0
B_5_1_1_3_1_1 0
B_5_1_1_3_1_2 0
B_5_1_1_3_2_1 0
B_5_1_1_3_2_2 0
B_5_1_1_3_2_3 0
B_5_1_1_3_2_4 0
B_5_1_1_3_2_5 0
B_5_1_1_3_2_6 0
B_5_1_1_4_1_1 0
B_5_1_1_4_1_2 0
B_5_1_1_4_2_1 0
B_5_1_1_4_2_2 0
B_5_1_1_4_2_3 0
B_5_1_2_1_1_1 0
B_5_1_2_1_1_2 0
B_5_1_2_1_1_3 0
B_5_1_2_1_2_1 0
B_5_1_2_1_2_2 0
B_5_1_2_1_2_3 0
B_5_1_2_1_2_4 0
B_5_1_2_1_2_5 0
B_5_1_2_1_2_6 0
B_5_1_2_2_1_1 0
B_5_1_2_2_1_2 0
B_5_1_2_2_1_3 0
B_5_1_2_2_1_4 0
B_5_1_2_2_1_5 0
B_5_1_2_2_2_1 0
B_5_1_2_2_2_2 0
B_5_1_2_2_2_3 0
B_5_1_2_3_1_1 0
B_5_1_2_3_1_2 0
B_5_1_2_3_2_1 0
B_5_1_2_3_2_2 0
B_5_1_2_3_2_3 0
B_5_1_2_3_2_4 0
B_5_1_2_3_2_5 0
B_5_1_2_3_2_6 0
B_5_1_2_4_1_1 0
B_5_1_2_4_1_2 0
B_5_1_2_4_2_1 0
B_5_1_2_4_2_2 0
B_5_1_2_4_2_3 0
B_5_1_3_1_1_1 0
B_5_1_3_1_1_2 0
B_5_1_3_1_1_3 0
B_5_1_3_1_2_1 0
B_5_1_3_1_2_2 0
B_5_1_3_1_2_3 0
B_5_1_3_1_2_4 0
B_5_1_3_1_2_5 0
B_5_1_3_1_2_6 0
B_5_1_3_2_1_1 0
B_5_1_3_2_1_2 0
B_5_1_3_2_1_3 0
B_5_1_3_2_1_4 0
B_5_1_3_2_1_5 0
B_5_1_3_2_2_1 0
B_5_1_3_2_2_2 0
B_5_1_3_2_2_3 0
B_5_1_3_3_1_1 0
B_5_1_3_3_1_2 0
B_5_1_3_3_2_1 0
B_5_1_3_3_2_2 0
B_5_1_3_3_2_3 0
B_5_1_3_3_2_4 0
B_5_1_3_3_2_5 0
B_5_1_3_3_2_6 0
B_5_1_3_4_1_1 0
B_5_1_3_4_1_2 0
B_5_1_3_4_2_1 0
B_5_1_3_4_2_2 0
B_5_1_3_4_2_3 0
B_5_1_4_1_1_1 0
B_5_1_4_1_1_2 0
B_5_1_4_1_1_3 0
B_5_1_4_1_2_1 0
B_5_1_4_1_2_2 0
B_5_1_4_1_2_3 0
B_5_1_4_1_2_4 0
B_5_1_4_1_2_5 0
B_5_1_4_1_2_6 0
B_5_1_4_2_1_1 0
B_5_1_4_2_1_2 0
B_5_1_4_2_1_3 0
B_5_1_4_2_1_4 0
B_5_1_4_2_1_5 0
B_5_1_4_2_2_1 0
B_5_1_4_2_2_2 0
B_5_1_4_2_2_3 0
B_5_1_4_3_1_1 0
B_5_1_4_3_1_2 0
B_5_1_4_3_2_1 0
B_5_1_4_3_2_2 0
B_5_1_4_3_2_3 0
B_5_1_4_3_2_4 0
B_5_1_4_3_2_5 0
B_5_1_4_3_2_6 0
B_5_1_4_4_1_1 0
B_5_1_4_4_1_2 0
B_5_1_4_4_2_1 0
B_5_1_4_4_2_2 0
B_5_1_4_4_2_3 0
B_5_2_1_1_1_1 0
B_5_2_1_1_1_2 0
B_5_2_1_1_1_3 0
B_5_2_1_1_2_1 0
B_5_2_1_1_2_2 0
B_5_2_1_1_2_3 0
B_5_2_1_1_2_4 0
B_5_2_1_1_2_5 0
B_5_2_1_1_2_6 0
B_5_2_1_2_1_1 0
B_5_2_1_2_1_2 0
B_5_2_1_2_1_3 0
B_5_2_1_2_1_4 0
B_5_2_1_2_1_5 0
B_5_2_1_2_2_1 0
B_5_2_1_2_2_2 0
B_5_2_1_2_2_3 0
B_5_2_1_3_1_1 0
B_5_2_1_3_1_2 0
B_5_2_1_3_2_1 0
B_5_2_1_3_2_2 0
B_5_2_1_3_2_3 0
B_5_2_1_3_2_4 0
B_5_2_1_3_2_5 0
B_5_2_1_3_2_6 0
B_5_2_1_4_1_1 0
B_5_2_1_4_1_2 0
B_5_2_1_4_2_1 0
B_5_2_1_4_2_2 0
B_5_2_1_4_2_3 0
B_5_2_2_1_1_1 0
B_5_2_2_1_1_2 0
B_5_2_2_1_1_3 0
B_5_2_2_1_2_1 0
B_5_2_2_1_2_2 0
B_5_2_2_1_2_3 0
B_5_2_2_1_2_4 0
B_5_2_2_1_2_5 0
B_5_2_2_1_2_6 0
B_5_2_2_2_1_1 0
B_5_2_2_2_1_2 0
B_5_2_2_2_1_3 0
B_5_2_2_2_1_4 0
B_5_2_2_2_1_5 0
B_5_2_2_2_2_1 0
B_5_2_2_2_2_2 0
B_5_2_2_2_2_3 0
B_5_2_2_3_1_1 0
B_5_2_2_3_1_2 0
B_5_2_2_3_2_1 0
B_5_2_2_3_2_2 0
B_5_2_2_3_2_3 0
B_5_2_2_3_2_4 0
B_5_2_2_3_2_5 0
B_5_2_2_3_2_6 0
B_5_2_2_4_1_1 0
B_5_2_2_4_1_2 0
B_5_2_2_4_2_1 0
B_5_2_2_4_2_2 0
B_5_2_2_4_2_3 0
B_5_2_3_1_1_1 0
B_5_2_3_1_1_2 0
B_5_2_3_1_1_3 0
B_5_2_3_1_2_1 0
B_5_2_3_1_2_2 0
B_5_2_3_1_2_3 0
B_5_2_3_1_2_4 0
B_5_2_3_1_2_5 0
B_5_2_3_1_2_6 0
B_5_2_3_2_1_1 0
B_5_2_3_2_1_2 0
B_5_2_3_2_1_3 0
B_5_2_3_2_1_4 0
B_5_2_3_2_1_5 0
B_5_2_3_2_2_1 0
B_5_2_3_2_2_2 0
B_5_2_3_2_2_3 0
B_5_2_3_3_1_1 0
B_5_2_3_3_1_2 0
B_5_2_3_3_2_1 0
B_5_2_3_3_2_2 0
B_5_2_3_3_2_3 0
B_5_2_3_3_2_4 0
B_5_2_3_3_2_5 0
B_5_2_3_3_2_6 0
B_5_2_3_4_1_1 0
B_5_2_3_4_1_2 0
B_5_2_3_4_2_1 0
B_5_2_3_4_2_2 0
B_5_2_3_4_2_3 0
B_5_2_4_1_1_1 0
B_5_2_4_1_1_2 0
B_5_2_4_1_1_3 0
B_5_2_4_1_2_1 0
B_5_2_4_1_2_2 0
B_5_2_4_1_2_3 0
B_5_2_4_1_2_4 0
B_5_2_4_1_2_5 0
B_5_2_4_1_2_6 0
B_5_2_4_2_1_1 0
B_5_2_4_2_1_2 0
B_5_2_4_2_1_3 0
B_5_2_4_2_1_4 0
B_5_2_4_2_1_5 0
B_5_2_4_2_2_1 0
B_5_2_4_2_2_2 0
B_5_2_4_2_2_3 0
B_5_2_4_3_1_1 0
B_5_2_4_3_1_2 0
B_5_2_4_3_2_1 0
B_5_2_4_3_2_2 0
B_5_2_4_3_2_3 0
B_5_2_4_3_2_4 0
B_5_2_4_3_2_5 0
B_5_2_4_3_2_6 0
B_5_2_4_4_1_1 0
B_5_2_4_4_1_2 0
B_5_2_4_4_2_1 0
B_5_2_4_4_2_2 0
B_5_2_4_4_2_3 0
B_5_2_5_1_1_1 0
B_5_2_5_1_1_2 0
B_5_2_5_1_1_3 0
B_5_2_5_1_2_1 0
B_5_2_5_1_2_2 0
B_5_2_5_1_2_3 0
B_5_2_5_1_2_4 0
B_5_2_5_1_2_5 0
B_5_2_5_1_2_6 0
B_5_2_5_2_1_1 0
B_5_2_5_2_1_2 0
B_5_2_5_2_1_3 0
B_5_2_5_2_1_4 0
B_5_2_5_2_1_5 0
B_5_2_5_2_2_1 0
B_5_2_5_2_2_2 0
B_5_2_5_2_2_3 0
B_5_2_5_3_1_1 0
B_5_2_5_3_1_2 0
B_5_2_5_3_2_1 0
B_5_2_5_3_2_2 0
B_5_2_5_3_2_3 0
B_5_2_5_3_2_4 0
B_5_2_5_3_2_5 0
B_5_2_5_3_2_6 0
B_5_2_5_4_1_1 0
B_5_2_5_4_1_2 0
B_5_2_5_4_2_1 0
B_5_2_5_4_2_2 0
B_5_2_5_4_2_3 0
